21
2 10 13 
3 58 57 47 
3 34 38 41 
3 30 46 40 
2 4 22 
3 51 5 42 
3 24 15 35 
3 45 43 44 
3 39 1 2 
3 28 56 11 
3 36 48 53 
3 27 37 26 
3 21 14 25 
3 54 59 29 
2 31 49 
3 32 50 19 
3 52 60 6 
3 33 3 12 
3 16 17 18 
3 8 55 23 
3 7 9 20 
